NAME : toy-n11-k4
COMMENT : teste
TYPE : CVRP
DIMENSION : 11
EDGE_WEIGHT_TYPE : EUC_2D 
CAPACITY : 3
NODE_COORD_SECTION 
 1 82 76
 2 96 44
 3 50 25
 4 49 8
 5 13 7
 6 29 89
 7 58 30
 8 84 39
 9 14 24
 10 2 39
 11 3 82
DEMAND_SECTION 
1 0 
2 1
3 1
4 1
5 1
6 1
7 1
8 1
9 1
10 1
11 1
DEPOT_SECTION 
 1  
 -1  
EOF 
